examples/inputs/input25.dzn
n = 63;
l = 450;
s = 400;
r = 400;
f = 100;
forbidden = [| 4, 8
	| 14, 24
	| 8, 36
	| 26, 10
	| 44, 49
	| 35, 23
	| 59, 2
	| 27, 46
	| 26, 37
	| 25, 56
	| 40, 59
	| 28, 30
	| 51, 62
	| 49, 15
	| 53, 1
	| 51, 1
	| 45, 46
	| 60, 5
	| 45, 36
	| 24, 49
	| 58, 39
	| 44, 12
	| 19, 15
	| 61, 62
	| 21, 28
	| 32, 32
	| 17, 44
	| 32, 33
	| 8, 14
	| 35, 30
	| 45, 49
	| 28, 2
	| 11, 43
	| 18, 30
	| 15, 24
	| 41, 44
	| 37, 63
	| 36, 6
	| 19, 21
	| 55, 59
	| 30, 49
	| 5, 59
	| 13, 55
	| 29, 7
	| 21, 43
	| 47, 20
	| 1, 37
	| 53, 23
	| 46, 6
	| 46, 37
	| 40, 1
	| 20, 25
	| 52, 57
	| 39, 29
	| 37, 25
	| 28, 29
	| 32, 21
	| 5, 3
	| 12, 45
	| 15, 39
	| 16, 35
	| 56, 40
	| 26, 60
	| 53, 24
	| 4, 18
	| 30, 35
	| 2, 11
	| 63, 45
	| 33, 28
	| 2, 30
	| 43, 20
	| 7, 54
	| 23, 12
	| 19, 20
	| 11, 57
	| 23, 11
	| 34, 60
	| 23, 55
	| 32, 36
	| 49, 2
	| 7, 4
	| 60, 53
	| 28, 8
	| 59, 3
	| 2, 55
	| 2, 37
	| 36, 53
	| 54, 33
	| 17, 40
	| 19, 29
	| 12, 30
	| 30, 34
	| 41, 48
	| 8, 5
	| 28, 48
	| 3, 49
	| 12, 26
	| 49, 51
	| 54, 10
	| 4, 53
	|];