examples/inputs/input25.lp
#const n = 63.
#const l = 450.
#const s = 400.
#const r = 400.
#const f = 100.
val(4, 8, xxx).
val(14, 24, xxx).
val(8, 36, xxx).
val(26, 10, xxx).
val(44, 49, xxx).
val(35, 23, xxx).
val(59, 2, xxx).
val(27, 46, xxx).
val(26, 37, xxx).
val(25, 56, xxx).
val(40, 59, xxx).
val(28, 30, xxx).
val(51, 62, xxx).
val(49, 15, xxx).
val(53, 1, xxx).
val(51, 1, xxx).
val(45, 46, xxx).
val(60, 5, xxx).
val(45, 36, xxx).
val(24, 49, xxx).
val(58, 39, xxx).
val(44, 12, xxx).
val(19, 15, xxx).
val(61, 62, xxx).
val(21, 28, xxx).
val(32, 32, xxx).
val(17, 44, xxx).
val(32, 33, xxx).
val(8, 14, xxx).
val(35, 30, xxx).
val(45, 49, xxx).
val(28, 2, xxx).
val(11, 43, xxx).
val(18, 30, xxx).
val(15, 24, xxx).
val(41, 44, xxx).
val(37, 63, xxx).
val(36, 6, xxx).
val(19, 21, xxx).
val(55, 59, xxx).
val(30, 49, xxx).
val(5, 59, xxx).
val(13, 55, xxx).
val(29, 7, xxx).
val(21, 43, xxx).
val(47, 20, xxx).
val(1, 37, xxx).
val(53, 23, xxx).
val(46, 6, xxx).
val(46, 37, xxx).
val(40, 1, xxx).
val(20, 25, xxx).
val(52, 57, xxx).
val(39, 29, xxx).
val(37, 25, xxx).
val(28, 29, xxx).
val(32, 21, xxx).
val(5, 3, xxx).
val(12, 45, xxx).
val(15, 39, xxx).
val(16, 35, xxx).
val(56, 40, xxx).
val(26, 60, xxx).
val(53, 24, xxx).
val(4, 18, xxx).
val(30, 35, xxx).
val(2, 11, xxx).
val(63, 45, xxx).
val(33, 28, xxx).
val(2, 30, xxx).
val(43, 20, xxx).
val(7, 54, xxx).
val(23, 12, xxx).
val(19, 20, xxx).
val(11, 57, xxx).
val(23, 11, xxx).
val(34, 60, xxx).
val(23, 55, xxx).
val(32, 36, xxx).
val(49, 2, xxx).
val(7, 4, xxx).
val(60, 53, xxx).
val(28, 8, xxx).
val(59, 3, xxx).
val(2, 55, xxx).
val(2, 37, xxx).
val(36, 53, xxx).
val(54, 33, xxx).
val(17, 40, xxx).
val(19, 29, xxx).
val(12, 30, xxx).
val(30, 34, xxx).
val(41, 48, xxx).
val(8, 5, xxx).
val(28, 48, xxx).
val(3, 49, xxx).
val(12, 26, xxx).
val(49, 51, xxx).
val(54, 10, xxx).
val(4, 53, xxx).